c 175_4_checker_5cl.cnf
c
c field = 175
c formula set type = 4_checker_5cl
c
p cnf 5 6
318 
378 
408 
438 
-288 
319 
379 
409 
439 
-289 
316 
380 
412 
444 
-284 
317 
381 
413 
445 
-285 
320 
376 
404 
432 
-292 
321 
377 
405 
433 
-293 
